
Gurobi 12.0.2 (mac64[arm]) logging started Fri Jun 13 22:35:38 2025

Set parameter LogFile to value "/Users/yurunfeng/Documents/GitHub/LRGTS-store-location/result/gurobi/snyder/150nodes/150-0.9-4.log"
Gurobi Optimizer version 12.0.2 build v12.0.2rc0 (mac64[arm] - Darwin 24.5.0 24F74)

CPU model: Apple M4
Thread count: 10 physical cores, 10 logical processors, using up to 10 threads

Non-default parameters:
TimeLimit  1200

Optimize a model with 3510600 rows, 6795450 columns and 32209486 nonzeros
Model fingerprint: 0x047359a7
Variable types: 3397650 continuous, 3397800 integer (3397800 binary)
Coefficient statistics:
  Matrix range     [1e-01, 1e+00]
  Objective range  [9e+01, 8e+06]
  Bounds range     [1e+00, 1e+00]
  RHS range        [1e+00, 4e+00]
Found heuristic solution: objective 6.624322e+07
Presolve removed 22800 rows and 22650 columns (presolve time = 5s)...
Presolve removed 22800 rows and 22650 columns (presolve time = 10s)...
Presolve removed 45300 rows and 22650 columns (presolve time = 15s)...
Presolve removed 45300 rows and 22650 columns (presolve time = 21s)...
Presolve removed 45300 rows and 22650 columns (presolve time = 25s)...
Presolve removed 45300 rows and 22650 columns (presolve time = 30s)...
Presolve removed 45300 rows and 22650 columns (presolve time = 40s)...
Presolve removed 45300 rows and 22650 columns (presolve time = 45s)...
Presolve removed 45300 rows and 22650 columns (presolve time = 50s)...
Presolve removed 45300 rows and 22650 columns (presolve time = 80s)...
Presolve removed 45300 rows and 22650 columns (presolve time = 87s)...
Presolve removed 45300 rows and 22650 columns (presolve time = 90s)...
Presolve removed 45300 rows and 22650 columns
Presolve time: 90.88s
Presolved: 3465300 rows, 6772800 columns, 29013730 nonzeros
Variable types: 3375000 continuous, 3397800 integer (3397800 binary)
Deterministic concurrent LP optimizer: primal simplex, dual simplex, and barrier
Showing barrier log only...

Root barrier log...

Elapsed ordering time = 14s
Elapsed ordering time = 15s
Ordering time: 19.53s

Barrier performed 0 iterations in 123.89 seconds (261.30 work units)
Barrier solve interrupted - model solved by another algorithm

Concurrent spin time: 8.33s (can be avoided by choosing Method=3)

Solved with dual simplex

Root simplex log...

Iteration    Objective       Primal Inf.    Dual Inf.      Time
   26303    2.3186993e+06   0.000000e+00   0.000000e+00    124s

Root relaxation: objective 2.318699e+06, 26303 iterations, 30.63 seconds (47.37 work units)

    Nodes    |    Current Node    |     Objective Bounds      |     Work
 Expl Unexpl |  Obj  Depth IntInf | Incumbent    BestBd   Gap | It/Node Time

     0     0 2318699.29    0 3094 6.6243e+07 2318699.29  96.5%     -  136s
H    0     0                    3074638.8858 2318699.29  24.6%     -  173s
H    0     0                    2803704.2865 2318699.29  17.3%     -  217s
     0     0 2341712.51    0 6480 2803704.29 2341712.51  16.5%     -  529s
H    0     0                    2715016.6233 2341732.76  13.7%     -  568s
H    0     0                    2701507.1945 2341732.76  13.3%     -  582s
H    0     0                    2700587.9051 2341732.76  13.3%     -  607s
H    0     0                    2699917.8094 2341732.76  13.3%     -  607s
H    0     0                    2664381.2185 2341732.76  12.1%     -  697s
H    0     0                    2664381.1741 2341732.76  12.1%     -  766s
     0     0 2342968.31    0 6339 2664381.17 2342968.31  12.1%     -  968s
     0     0 2343010.84    0 6465 2664381.17 2343010.84  12.1%     -  994s

Cutting planes:
  Cover: 4
  Clique: 4
  MIR: 434
  Flow cover: 1241
  RLT: 136

Explored 1 nodes (66186 simplex iterations) in 1200.69 seconds (1907.55 work units)
Thread count was 10 (of 10 available processors)

Solution count 9: 2.66438e+06 2.66438e+06 2.69992e+06 ... 6.62432e+07

Time limit reached
Best objective 2.664381174370e+06, best bound 2.343010835253e+06, gap 12.0617%
